c "912756.clq"
p edge 150 584
e 1 5
e 1 6
e 1 11
e 1 15
e 1 17
e 1 22
e 1 57
e 1 59
e 1 63
e 1 67
e 1 76
e 1 79
e 1 80
e 1 108
e 1 110
e 1 127
e 1 132
e 1 135
e 1 139
e 1 141
e 1 143
e 2 5
e 2 7
e 2 23
e 2 25
e 2 91
e 2 93
e 2 109
e 2 118
e 2 123
e 3 5
e 3 6
e 3 8
e 3 9
e 3 15
e 3 19
e 3 24
e 3 27
e 3 39
e 3 42
e 3 43
e 3 50
e 3 62
e 3 66
e 3 96
e 3 104
e 3 117
e 3 144
e 4 5
e 4 6
e 4 7
e 4 8
e 4 14
e 4 16
e 4 19
e 4 21
e 4 22
e 4 24
e 4 25
e 4 32
e 4 37
e 4 55
e 4 58
e 4 69
e 4 73
e 4 80
e 4 89
e 4 91
e 4 105
e 4 112
e 4 113
e 4 124
e 4 136
e 4 145
e 4 146
e 5 6
e 5 7
e 5 9
e 5 10
e 5 12
e 5 13
e 5 16
e 5 18
e 5 21
e 5 24
e 5 30
e 5 31
e 5 38
e 5 40
e 5 47
e 5 49
e 5 54
e 5 58
e 5 80
e 5 84
e 5 86
e 5 88
e 5 102
e 5 113
e 5 117
e 5 118
e 5 119
e 5 120
e 5 121
e 5 131
e 5 136
e 5 149
e 6 7
e 6 8
e 6 9
e 6 10
e 6 11
e 6 12
e 6 13
e 6 14
e 6 15
e 6 16
e 6 22
e 6 25
e 6 27
e 6 32
e 6 34
e 6 39
e 6 43
e 6 45
e 6 56
e 6 64
e 6 68
e 6 76
e 6 103
e 6 109
e 6 126
e 6 130
e 7 8
e 7 11
e 7 12
e 7 14
e 7 18
e 7 20
e 7 30
e 7 31
e 7 36
e 7 49
e 7 50
e 7 53
e 7 66
e 7 70
e 7 71
e 7 74
e 7 75
e 7 78
e 7 86
e 7 92
e 7 96
e 7 106
e 7 119
e 7 136
e 8 9
e 8 10
e 8 11
e 8 12
e 8 16
e 8 20
e 8 22
e 8 28
e 8 30
e 8 52
e 8 57
e 8 63
e 8 78
e 8 85
e 8 90
e 8 98
e 8 99
e 8 101
e 8 107
e 8 110
e 8 138
e 8 149
e 9 10
e 9 14
e 9 18
e 9 19
e 9 23
e 9 39
e 9 56
e 9 68
e 9 73
e 9 77
e 9 87
e 9 95
e 9 124
e 9 125
e 9 130
e 9 140
e 9 144
e 10 13
e 10 23
e 10 62
e 10 69
e 10 83
e 10 94
e 10 101
e 10 103
e 10 108
e 10 123
e 10 131
e 11 13
e 11 17
e 11 23
e 11 24
e 11 29
e 11 33
e 11 37
e 11 38
e 11 44
e 11 45
e 11 54
e 11 57
e 11 59
e 11 63
e 11 67
e 11 78
e 11 97
e 11 134
e 12 15
e 12 18
e 12 20
e 12 26
e 12 33
e 12 36
e 12 42
e 12 54
e 12 65
e 12 81
e 12 82
e 12 93
e 12 106
e 12 107
e 12 119
e 12 132
e 13 17
e 13 26
e 13 30
e 13 34
e 13 41
e 13 51
e 13 53
e 13 55
e 13 60
e 13 71
e 13 80
e 13 82
e 13 110
e 13 114
e 13 146
e 14 17
e 14 52
e 14 87
e 14 99
e 14 109
e 15 19
e 15 21
e 15 26
e 15 27
e 15 31
e 15 35
e 15 36
e 15 40
e 15 41
e 15 44
e 15 46
e 15 48
e 15 50
e 15 53
e 15 72
e 15 74
e 15 79
e 15 100
e 15 102
e 15 105
e 15 114
e 15 116
e 15 133
e 15 136
e 16 34
e 16 35
e 16 42
e 16 45
e 16 60
e 16 84
e 16 118
e 16 132
e 17 29
e 17 41
e 17 45
e 17 46
e 17 47
e 17 76
e 17 110
e 17 112
e 17 120
e 18 20
e 18 26
e 18 29
e 18 33
e 18 47
e 18 49
e 18 59
e 18 71
e 18 88
e 18 102
e 18 124
e 19 21
e 19 35
e 19 93
e 19 123
e 19 137
e 20 25
e 20 28
e 20 32
e 20 38
e 20 40
e 20 51
e 20 66
e 20 72
e 20 79
e 20 86
e 20 87
e 20 108
e 20 128
e 20 137
e 21 52
e 21 62
e 21 70
e 22 28
e 22 29
e 22 34
e 22 48
e 22 85
e 22 95
e 22 102
e 22 109
e 22 134
e 24 33
e 24 37
e 24 98
e 24 101
e 24 112
e 24 126
e 24 140
e 24 141
e 25 41
e 25 60
e 25 134
e 25 141
e 26 27
e 26 28
e 26 104
e 26 128
e 27 32
e 27 40
e 27 50
e 27 67
e 27 116
e 27 133
e 27 142
e 28 31
e 28 36
e 28 43
e 28 47
e 28 48
e 28 55
e 28 75
e 28 79
e 28 83
e 28 86
e 28 96
e 28 97
e 28 104
e 28 116
e 29 38
e 29 39
e 29 69
e 29 85
e 29 94
e 29 97
e 29 120
e 29 135
e 30 68
e 30 114
e 31 35
e 31 63
e 31 68
e 31 111
e 31 150
e 32 44
e 32 46
e 32 51
e 32 81
e 32 103
e 32 127
e 33 43
e 33 48
e 33 61
e 33 70
e 33 97
e 33 100
e 33 147
e 34 65
e 35 37
e 35 61
e 36 73
e 37 51
e 37 60
e 37 69
e 37 85
e 37 140
e 37 143
e 37 150
e 38 59
e 38 64
e 38 72
e 38 77
e 38 84
e 38 149
e 39 46
e 39 49
e 39 61
e 39 66
e 39 67
e 39 82
e 39 93
e 39 113
e 40 83
e 41 42
e 41 44
e 41 52
e 41 54
e 41 56
e 41 58
e 41 64
e 42 62
e 42 91
e 42 141
e 43 81
e 43 100
e 43 108
e 43 120
e 43 124
e 44 56
e 44 89
e 44 122
e 45 55
e 45 92
e 45 111
e 46 72
e 46 75
e 46 88
e 46 132
e 47 53
e 48 65
e 48 70
e 48 90
e 48 100
e 48 122
e 48 125
e 48 147
e 49 90
e 49 92
e 50 58
e 50 106
e 50 121
e 50 134
e 50 135
e 51 71
e 52 57
e 52 81
e 53 74
e 53 105
e 53 144
e 54 61
e 54 65
e 54 82
e 54 98
e 55 99
e 55 144
e 56 90
e 56 114
e 56 127
e 57 128
e 59 76
e 60 64
e 60 138
e 62 75
e 62 127
e 63 87
e 63 88
e 63 125
e 63 139
e 64 84
e 65 73
e 65 78
e 65 89
e 65 94
e 65 107
e 65 129
e 66 77
e 66 128
e 66 145
e 66 148
e 67 92
e 68 105
e 68 121
e 70 74
e 70 101
e 70 118
e 70 146
e 71 83
e 71 96
e 71 106
e 71 111
e 73 131
e 74 77
e 74 115
e 75 95
e 75 113
e 77 103
e 78 89
e 78 150
e 79 139
e 79 147
e 79 150
e 80 148
e 81 95
e 81 143
e 81 145
e 82 98
e 82 115
e 87 91
e 87 115
e 87 119
e 87 130
e 87 135
e 89 94
e 89 121
e 90 107
e 90 148
e 91 99
e 92 112
e 93 117
e 93 125
e 93 126
e 93 138
e 94 142
e 96 129
e 97 129
e 97 146
e 99 129
e 100 104
e 101 133
e 103 111
e 103 149
e 104 122
e 104 137
e 105 115
e 105 116
e 105 143
e 110 117
e 110 122
e 110 123
e 110 126
e 111 142
e 114 130
e 114 142
e 114 145
e 115 147
e 125 139
e 126 131
e 126 138
e 127 148
e 128 133
e 129 137
e 129 140
